; benchmark generated from python API
(set-info :status unknown)
(declare-datatypes ((IntState 0)) (((Mk1 (val1 Int)) (Mk2 (val2 Int)))))
 (declare-fun c_main_~i~6 () Int)
(declare-fun c_main_~k~6 () Int)
(declare-fun c_main_~j~6 () Int)
(assert
 (let (($x148 (<= c_main_~i~6 3)))
 (let (($x92 (exists ((main_~i~6_st IntState) (val!106 Int) )(let ((?x56 (val2 main_~i~6_st)))
 (let (($x13 (<= ?x56 4)))
 (let (($x143 (and (<= c_main_~j~6 (+ (* 2 ?x56) 2)) $x13 (<= ?x56 c_main_~k~6))))
 (let (($x52 (not (= main_~i~6_st (Mk1 val!106)))))
 (and $x52 $x143))))))
 ))
 (let (($x50 (<= c_main_~i~6 4)))
 (let (($x165 (<= c_main_~j~6 (+ (* 2 c_main_~i~6) 2))))
 (let ((?x104 (* 2 c_main_~i~6)))
 (let (($x174 (<= c_main_~j~6 ?x104)))
 (let (($x33 (exists ((v_nnf_96 Int) )(let (($x121 (<= v_nnf_96 4)))
 (let (($x137 (<= c_main_~j~6 (+ (* 2 v_nnf_96) 2))))
 (and (<= (+ v_nnf_96 2) c_main_~k~6) $x137 $x121))))
 ))
 (let (($x51 (<= c_main_~j~6 (+ ?x104 1))))
 (and (and $x51 $x50 $x33 $x174 $x148) (not (and $x165 $x50 $x92 $x148))))))))))))
(check-sat)
